experiments/sat_smt/run/sat-r/results/priscilla.res
solved=true
solvingTime=145.500244140625
nActions=15