experiments/sat_smt/run/sat-r/results/priscilla.out
Timesteps: 1
s UNSATISFIABLE
real 0.13
user 0.02
sys 0.00
Timesteps: 2
s UNSATISFIABLE
real 0.22
user 0.03
sys 0.01
Timesteps: 3
s UNSATISFIABLE
real 0.24
user 0.07
sys 0.01
Timesteps: 4
s UNSATISFIABLE
real 0.28
user 0.18
sys 0.01
Timesteps: 5
s UNSATISFIABLE
real 0.57
user 0.45
sys 0.01
Timesteps: 6
s UNSATISFIABLE
real 1.33
user 1.18
sys 0.01
Timesteps: 7
s UNSATISFIABLE
real 2.43
user 2.19
sys 0.01
Timesteps: 8
s UNSATISFIABLE
real 4.40
user 4.18
sys 0.02
Timesteps: 9
s UNSATISFIABLE
real 4.68
user 4.45
sys 0.02
Timesteps: 10
s UNSATISFIABLE
real 6.97
user 6.69
sys 0.03
Timesteps: 11
s UNSATISFIABLE
real 17.64
user 16.87
sys 0.06
Timesteps: 12
s UNSATISFIABLE
real 23.87
user 22.99
sys 0.06
Timesteps: 13
s UNSATISFIABLE
real 25.67
user 24.74
sys 0.06
Timesteps: 14
s UNSATISFIABLE
real 31.10
user 30.06
sys 0.10
Timesteps: 15
s SATISFIABLE
real 28.33
user 27.28
sys 0.08
